%chk=N_PhO3_init.chk
# hf/cc-pvtz/auto otherinput1=value1 guess=read otherinput2=value2

planar_CH3_radical

0 2
 C                  0.00000000    0.00000000    0.00000000
 H                 -1.07000000    0.00000000    0.00000000
 H                  0.48517901   -0.84421148    0.00000000
 H                  0.48517901    0.84421148    0.00000000

